54 79
3 39
31 55
53 64
74 45
28 19
84 77
38 65
28 21
32 83
97 53
9 104
54 36
81 113
9 90
31 105
67 100
23 101
89 111
51 89
98 74
47 129
19 119
10 71
19 59
73 130
62 118
73 74
33 83
45 130
59 159
92 119
68 104
88 87
54 143
79 160
68 135
29 148
13 170
52 166
60 102
34 147
15 140
96 106
70 175
12 103
79 100
100 158
104 165
52 166
45 216
88 141
54 189
13 160
96 135
80 164
86 205
83 187
93 153
29 217
64 151
17 198
46 155
18 192
38 236
54 216
60 230
91 217
86 186
69 219
2 231
4 253
6 258
18 219
47 189
52 227
93 273
57 220
11 186
33 272
17 274
65 288
87 206
30 269
27 203
76 241
103 210
16 218
59 250
75 302
26 320
48 323
3 303
70 321
53 282
52 280
106 265
40 282
106 299
72 322
